75
2 1 896
3 1 361
3 2 679
4 1 44
4 2 887
4 3 579
5 1 465
5 2 102
5 3 379
5 4 576
6 1 820
6 2 560
6 3 409
6 4 966
6 5 289
7 1 452
7 2 35
7 3 337
7 4 949
7 5 180
7 6 468
8 1 430
8 2 78
8 3 930
8 4 337
8 5 344
8 6 369
8 7 17
9 1 449
9 2 151
9 3 112
9 4 665
9 5 568
9 6 536
9 7 38
9 8 984
10 1 69
10 2 353
10 3 784
10 4 139
10 5 501
10 6 222
10 7 144
10 8 965
10 9 394
11 1 543
11 2 573
11 3 538
11 4 872
11 5 561
11 6 609
11 7 453
11 8 886
11 9 356
11 10 184
12 1 813
12 2 135
12 3 888
12 4 986
12 5 174
12 6 992
12 7 485
12 8 341
12 9 973
12 10 1
12 11 384
13 1 278
13 2 167
13 3 760
13 4 222
13 5 747
13 6 99
13 7 260
13 8 599
13 9 160
13 10 850
13 11 994
13 12 86
14 1 702
14 2 571
14 3 399
14 4 321
14 5 114
14 6 552
14 7 452
14 8 55
14 9 875
14 10 35
14 11 490
14 12 293
14 13 977
15 1 22
15 2 561
15 3 895
15 4 748
15 5 579
15 6 875
15 7 276
15 8 392
15 9 403
15 10 184
15 11 80
15 12 210
15 13 634
15 14 132
16 1 958
16 2 675
16 3 189
16 4 917
16 5 823
16 6 816
16 7 103
16 8 821
16 9 220
16 10 591
16 11 645
16 12 417
16 13 688
16 14 204
16 15 206
17 1 529
17 2 236
17 3 540
17 4 208
17 5 266
17 6 316
17 7 176
17 8 554
17 9 681
17 10 931
17 11 650
17 12 353
17 13 880
17 14 736
17 15 931
17 16 941
18 1 655
18 2 284
18 3 285
18 4 438
18 5 939
18 6 779
18 7 970
18 8 359
18 9 670
18 10 975
18 11 462
18 12 18
18 13 861
18 14 93
18 15 149
18 16 739
18 17 961
19 1 888
19 2 676
19 3 130
19 4 808
19 5 247
19 6 400
19 7 911
19 8 746
19 9 947
19 10 633
19 11 60
19 12 729
19 13 442
19 14 613
19 15 287
19 16 467
19 17 820
19 18 404
20 1 69
20 2 938
20 3 310
20 4 167
20 5 772
20 6 828
20 7 950
20 8 476
20 9 602
20 10 724
20 11 321
20 12 640
20 13 389
20 14 109
20 15 450
20 16 218
20 17 465
20 18 500
20 19 281
21 1 159
21 2 132
21 3 268
21 4 335
21 5 265
21 6 478
21 7 985
21 8 429
21 9 924
21 10 544
21 11 333
21 12 606
21 13 295
21 14 96
21 15 923
21 16 628
21 17 388
21 18 509
21 19 568
21 20 683
22 1 736
22 2 508
22 3 835
22 4 166
22 5 595
22 6 778
22 7 939
22 8 682
22 9 867
22 10 700
22 11 306
22 12 637
22 13 182
22 14 705
22 15 351
22 16 44
22 17 839
22 18 6
22 19 310
22 20 436
22 21 537
23 1 719
23 2 178
23 3 4
23 4 100
23 5 614
23 6 69
23 7 340
23 8 622
23 9 8
23 10 579
23 11 419
23 12 736
23 13 555
23 14 945
23 15 694
23 16 949
23 17 931
23 18 93
23 19 434
23 20 217
23 21 667
23 22 868
24 1 689
24 2 227
24 3 649
24 4 26
24 5 499
24 6 55
24 7 18
24 8 802
24 9 242
24 10 158
24 11 486
24 12 118
24 13 235
24 14 875
24 15 322
24 16 744
24 17 974
24 18 899
24 19 504
24 20 996
24 21 646
24 22 389
24 23 806
25 1 757
25 2 780
25 3 684
25 4 803
25 5 918
25 6 178
25 7 791
25 8 68
25 9 539
25 10 501
25 11 105
25 12 49
25 13 293
25 14 130
25 15 48
25 16 395
25 17 28
25 18 198
25 19 554
25 20 718
25 21 491
25 22 905
25 23 617
25 24 60
26 1 544
26 2 511
26 3 321
26 4 564
26 5 439
26 6 617
26 7 58
26 8 92
26 9 960
26 10 631
26 11 863
26 12 816
26 13 502
26 14 538
26 15 68
26 16 13
26 17 414
26 18 355
26 19 717
26 20 586
26 21 146
26 22 900
26 23 417
26 24 54
26 25 54
27 1 753
27 2 590
27 3 13
27 4 889
27 5 540
27 6 298
27 7 340
27 8 320
27 9 918
27 10 95
27 11 616
27 12 36
27 13 889
27 14 589
27 15 550
27 16 255
27 17 325
27 18 659
27 19 382
27 20 699
27 21 823
27 22 521
27 23 546
27 24 359
27 25 286
27 26 81
28 1 69
28 2 607
28 3 842
28 4 260
28 5 482
28 6 477
28 7 994
28 8 256
28 9 234
28 10 189
28 11 113
28 12 895
28 13 872
28 14 213
28 15 676
28 16 559
28 17 482
28 18 457
28 19 852
28 20 339
28 21 149
28 22 391
28 23 338
28 24 388
28 25 443
28 26 165
28 27 557
29 1 641
29 2 181
29 3 49
29 4 606
29 5 365
29 6 965
29 7 754
29 8 585
29 9 205
29 10 266
29 11 456
29 12 169
29 13 700
29 14 33
29 15 583
29 16 582
29 17 423
29 18 103
29 19 684
29 20 317
29 21 219
29 22 908
29 23 949
29 24 259
29 25 213
29 26 227
29 27 197
29 28 76
30 1 538
30 2 997
30 3 387
30 4 10
30 5 972
30 6 427
30 7 988
30 8 446
30 9 919
30 10 932
30 11 756
30 12 887
30 13 439
30 14 626
30 15 743
30 16 225
30 17 261
30 18 385
30 19 610
30 20 415
30 21 963
30 22 741
30 23 544
30 24 949
30 25 776
30 26 96
30 27 361
30 28 758
30 29 688
31 1 17
31 2 607
31 3 407
31 4 805
31 5 628
31 6 715
31 7 732
31 8 142
31 9 325
31 10 552
31 11 276
31 12 305
31 13 348
31 14 902
31 15 170
31 16 740
31 17 941
31 18 716
31 19 335
31 20 496
31 21 120
31 22 190
31 23 123
31 24 697
31 25 292
31 26 989
31 27 790
31 28 161
31 29 233
31 30 180
32 1 422
32 2 851
32 3 181
32 4 697
32 5 191
32 6 116
32 7 44
32 8 393
32 9 80
32 10 892
32 11 978
32 12 13
32 13 445
32 14 329
32 15 844
32 16 635
32 17 44
32 18 508
32 19 287
32 20 407
32 21 428
32 22 213
32 23 453
32 24 649
32 25 793
32 26 936
32 27 587
32 28 625
32 29 701
32 30 563
32 31 27
33 1 560
33 2 285
33 3 426
33 4 340
33 5 715
33 6 813
33 7 668
33 8 600
33 9 591
33 10 753
33 11 113
33 12 79
33 13 573
33 14 707
33 15 73
33 16 836
33 17 577
33 18 846
33 19 800
33 20 965
33 21 536
33 22 726
33 23 506
33 24 515
33 25 757
33 26 618
33 27 154
33 28 315
33 29 507
33 30 714
33 31 463
33 32 234
34 1 353
34 2 867
34 3 806
34 4 605
34 5 111
34 6 712
34 7 958
34 8 835
34 9 435
34 10 320
34 11 869
34 12 446
34 13 392
34 14 755
34 15 923
34 16 52
34 17 569
34 18 163
34 19 355
34 20 31
34 21 541
34 22 271
34 23 779
34 24 885
34 25 755
34 26 427
34 27 16
34 28 555
34 29 161
34 30 565
34 31 662
34 32 190
34 33 143
35 1 709
35 2 86
35 3 111
35 4 569
35 5 913
35 6 808
35 7 2
35 8 38
35 9 753
35 10 434
35 11 551
35 12 625
35 13 752
35 14 603
35 15 70
35 16 695
35 17 372
35 18 629
35 19 829
35 20 610
35 21 455
35 22 784
35 23 121
35 24 388
35 25 219
35 26 413
35 27 307
35 28 626
35 29 223
35 30 315
35 31 344
35 32 273
35 33 903
35 34 92
36 1 546
36 2 38
36 3 562
36 4 406
36 5 598
36 6 534
36 7 960
36 8 324
36 9 54
36 10 449
36 11 858
36 12 207
36 13 843
36 14 316
36 15 165
36 16 826
36 17 522
36 18 712
36 19 555
36 20 650
36 21 292
36 22 934
36 23 692
36 24 492
36 25 21
36 26 476
36 27 428
36 28 962
36 29 787
36 30 879
36 31 624
36 32 414
36 33 680
36 34 764
36 35 451
37 1 329
37 2 895
37 3 107
37 4 314
37 5 323
37 6 330
37 7 94
37 8 770
37 9 228
37 10 233
37 11 102
37 12 82
37 13 930
37 14 624
37 15 627
37 16 264
37 17 911
37 18 508
37 19 239
37 20 775
37 21 683
37 22 132
37 23 855
37 24 213
37 25 556
37 26 785
37 27 924
37 28 661
37 29 435
37 30 903
37 31 320
37 32 553
37 33 578
37 34 474
37 35 20
37 36 182
38 1 519
38 2 4
38 3 877
38 4 244
38 5 590
38 6 543
38 7 61
38 8 43
38 9 733
38 10 530
38 11 979
38 12 219
38 13 542
38 14 452
38 15 745
38 16 160
38 17 738
38 18 587
38 19 509
38 20 440
38 21 501
38 22 310
38 23 221
38 24 948
38 25 366
38 26 748
38 27 640
38 28 553
38 29 608
38 30 753
38 31 653
38 32 462
38 33 333
38 34 480
38 35 232
38 36 633
38 37 681
39 1 46
39 2 574
39 3 878
39 4 869
39 5 46
39 6 268
39 7 534
39 8 988
39 9 911
39 10 525
39 11 831
39 12 757
39 13 379
39 14 818
39 15 334
39 16 676
39 17 571
39 18 473
39 19 94
39 20 272
39 21 428
39 22 44
39 23 377
39 24 362
39 25 520
39 26 527
39 27 109
39 28 550
39 29 473
39 30 739
39 31 412
39 32 381
39 33 519
39 34 423
39 35 859
39 36 847
39 37 925
39 38 896
40 1 332
40 2 196
40 3 307
40 4 307
40 5 598
40 6 218
40 7 80
40 8 822
40 9 9
40 10 471
40 11 544
40 12 299
40 13 918
40 14 110
40 15 366
40 16 278
40 17 728
40 18 299
40 19 465
40 20 339
40 21 670
40 22 354
40 23 543
40 24 158
40 25 717
40 26 95
40 27 771
40 28 821
40 29 234
40 30 76
40 31 392
40 32 206
40 33 275
40 34 644
40 35 230
40 36 515
40 37 628
40 38 15
40 39 368
41 1 259
41 2 1000
41 3 813
41 4 505
41 5 267
41 6 975
41 7 754
41 8 725
41 9 538
41 10 611
41 11 425
41 12 709
41 13 993
41 14 814
41 15 353
41 16 620
41 17 462
41 18 869
41 19 785
41 20 178
41 21 448
41 22 751
41 23 902
41 24 681
41 25 507
41 26 97
41 27 376
41 28 964
41 29 291
41 30 972
41 31 482
41 32 560
41 33 591
41 34 799
41 35 207
41 36 560
41 37 925
41 38 93
41 39 28
41 40 941
42 1 504
42 2 870
42 3 328
42 4 337
42 5 631
42 6 860
42 7 614
42 8 540
42 9 862
42 10 909
42 11 1
42 12 210
42 13 480
42 14 196
42 15 639
42 16 563
42 17 109
42 18 134
42 19 30
42 20 28
42 21 534
42 22 103
42 23 428
42 24 143
42 25 40
42 26 381
42 27 755
42 28 179
42 29 833
42 30 899
42 31 741
42 32 252
42 33 373
42 34 715
42 35 206
42 36 928
42 37 665
42 38 313
42 39 696
42 40 576
42 41 845
43 1 131
43 2 910
43 3 967
43 4 617
43 5 923
43 6 595
43 7 876
43 8 352
43 9 854
43 10 872
43 11 696
43 12 926
43 13 442
43 14 166
43 15 309
43 16 614
43 17 737
43 18 198
43 19 723
43 20 593
43 21 354
43 22 713
43 23 231
43 24 887
43 25 256
43 26 898
43 27 87
43 28 804
43 29 395
43 30 678
43 31 968
43 32 201
43 33 607
43 34 331
43 35 705
43 36 121
43 37 382
43 38 110
43 39 60
43 40 638
43 41 390
43 42 823
44 1 536
44 2 964
44 3 891
44 4 548
44 5 478
44 6 141
44 7 405
44 8 940
44 9 978
44 10 880
44 11 282
44 12 808
44 13 317
44 14 365
44 15 34
44 16 918
44 17 978
44 18 92
44 19 572
44 20 190
44 21 454
44 22 54
44 23 724
44 24 762
44 25 372
44 26 839
44 27 654
44 28 583
44 29 686
44 30 462
44 31 73
44 32 497
44 33 938
44 34 994
44 35 365
44 36 993
44 37 839
44 38 303
44 39 5
44 40 81
44 41 685
44 42 475
44 43 903
45 1 968
45 2 347
45 3 737
45 4 549
45 5 484
45 6 852
45 7 936
45 8 89
45 9 447
45 10 802
45 11 898
45 12 713
45 13 415
45 14 137
45 15 243
45 16 979
45 17 504
45 18 989
45 19 446
45 20 957
45 21 224
45 22 648
45 23 240
45 24 321
45 25 518
45 26 874
45 27 660
45 28 762
45 29 453
45 30 73
45 31 295
45 32 362
45 33 241
45 34 83
45 35 572
45 36 796
45 37 549
45 38 578
45 39 133
45 40 500
45 41 278
45 42 342
45 43 623
45 44 182
46 1 245
46 2 921
46 3 454
46 4 292
46 5 486
46 6 395
46 7 364
46 8 359
46 9 89
46 10 294
46 11 836
46 12 293
46 13 773
46 14 892
46 15 691
46 16 46
46 17 643
46 18 389
46 19 426
46 20 262
46 21 811
46 22 751
46 23 111
46 24 792
46 25 836
46 26 179
46 27 911
46 28 200
46 29 159
46 30 496
46 31 548
46 32 642
46 33 983
46 34 928
46 35 277
46 36 748
46 37 296
46 38 57
46 39 180
46 40 383
46 41 958
46 42 924
46 43 855
46 44 420
46 45 68
47 1 559
47 2 814
47 3 897
47 4 31
47 5 429
47 6 149
47 7 196
47 8 35
47 9 565
47 10 296
47 11 112
47 12 863
47 13 359
47 14 949
47 15 955
47 16 242
47 17 308
47 18 453
47 19 47
47 20 165
47 21 180
47 22 232
47 23 258
47 24 886
47 25 385
47 26 75
47 27 453
47 28 512
47 29 531
47 30 346
47 31 977
47 32 405
47 33 432
47 34 428
47 35 561
47 36 818
47 37 70
47 38 980
47 39 276
47 40 469
47 41 260
47 42 805
47 43 416
47 44 980
47 45 35
47 46 419
48 1 434
48 2 389
48 3 978
48 4 611
48 5 316
48 6 165
48 7 42
48 8 584
48 9 18
48 10 423
48 11 576
48 12 480
48 13 847
48 14 275
48 15 589
48 16 357
48 17 910
48 18 511
48 19 488
48 20 937
48 21 17
48 22 60
48 23 799
48 24 692
48 25 665
48 26 902
48 27 628
48 28 81
48 29 980
48 30 396
48 31 869
48 32 9
48 33 739
48 34 200
48 35 394
48 36 816
48 37 871
48 38 226
48 39 757
48 40 376
48 41 43
48 42 325
48 43 144
48 44 108
48 45 227
48 46 651
48 47 581
49 1 975
49 2 362
49 3 871
49 4 656
49 5 784
49 6 510
49 7 694
49 8 249
49 9 353
49 10 110
49 11 384
49 12 43
49 13 362
49 14 231
49 15 215
49 16 799
49 17 957
49 18 940
49 19 49
49 20 657
49 21 417
49 22 165
49 23 490
49 24 978
49 25 456
49 26 693
49 27 286
49 28 456
49 29 980
49 30 166
49 31 949
49 32 533
49 33 349
49 34 210
49 35 752
49 36 346
49 37 482
49 38 85
49 39 574
49 40 725
49 41 354
49 42 471
49 43 261
49 44 994
49 45 715
49 46 278
49 47 460
49 48 569
50 1 85
50 2 601
50 3 109
50 4 622
50 5 348
50 6 214
50 7 30
50 8 298
50 9 516
50 10 211
50 11 310
50 12 260
50 13 466
50 14 687
50 15 418
50 16 542
50 17 729
50 18 591
50 19 243
50 20 984
50 21 644
50 22 113
50 23 503
50 24 740
50 25 441
50 26 252
50 27 206
50 28 619
50 29 65
50 30 436
50 31 113
50 32 265
50 33 826
50 34 316
50 35 389
50 36 419
50 37 162
50 38 129
50 39 885
50 40 780
50 41 116
50 42 246
50 43 745
50 44 215
50 45 306
50 46 787
50 47 277
50 48 311
50 49 490
51 1 436
51 2 279
51 3 542
51 4 18
51 5 825
51 6 258
51 7 541
51 8 746
51 9 136
51 10 247
51 11 234
51 12 228
51 13 769
51 14 141
51 15 839
51 16 257
51 17 237
51 18 761
51 19 991
51 20 58
51 21 646
51 22 82
51 23 491
51 24 717
51 25 394
51 26 308
51 27 425
51 28 648
51 29 974
51 30 749
51 31 676
51 32 170
51 33 1
51 34 678
51 35 67
51 36 514
51 37 846
51 38 630
51 39 647
51 40 820
51 41 510
51 42 801
51 43 863
51 44 942
51 45 610
51 46 525
51 47 644
51 48 132
51 49 607
51 50 994
52 1 625
52 2 914
52 3 658
52 4 678
52 5 30
52 6 716
52 7 722
52 8 124
52 9 969
52 10 77
52 11 794
52 12 85
52 13 141
52 14 496
52 15 398
52 16 169
52 17 216
52 18 237
52 19 719
52 20 447
52 21 371
52 22 661
52 23 3
52 24 704
52 25 772
52 26 896
52 27 101
52 28 298
52 29 969
52 30 910
52 31 289
52 32 785
52 33 479
52 34 320
52 35 744
52 36 784
52 37 63
52 38 472
52 39 300
52 40 749
52 41 432
52 42 645
52 43 363
52 44 603
52 45 410
52 46 416
52 47 127
52 48 423
52 49 782
52 50 517
52 51 445
53 1 609
53 2 362
53 3 748
53 4 13
53 5 244
53 6 1000
53 7 763
53 8 717
53 9 571
53 10 561
53 11 789
53 12 301
53 13 788
53 14 116
53 15 606
53 16 707
53 17 598
53 18 850
53 19 341
53 20 736
53 21 208
53 22 438
53 23 906
53 24 902
53 25 717
53 26 911
53 27 135
53 28 605
53 29 85
53 30 233
53 31 944
53 32 8
53 33 122
53 34 128
53 35 72
53 36 238
53 37 190
53 38 887
53 39 234
53 40 804
53 41 567
53 42 167
53 43 736
53 44 345
53 45 647
53 46 38
53 47 876
53 48 96
53 49 437
53 50 780
53 51 705
53 52 704
54 1 23
54 2 179
54 3 942
54 4 262
54 5 966
54 6 336
54 7 141
54 8 700
54 9 808
54 10 234
54 11 394
54 12 907
54 13 123
54 14 570
54 15 164
54 16 212
54 17 824
54 18 609
54 19 43
54 20 106
54 21 649
54 22 56
54 23 516
54 24 336
54 25 29
54 26 211
54 27 39
54 28 743
54 29 769
54 30 901
54 31 4
54 32 476
54 33 244
54 34 947
54 35 399
54 36 461
54 37 47
54 38 169
54 39 236
54 40 261
54 41 278
54 42 187
54 43 65
54 44 691
54 45 916
54 46 515
54 47 131
54 48 828
54 49 972
54 50 707
54 51 4
54 52 294
54 53 356
55 1 556
55 2 729
55 3 939
55 4 651
55 5 601
55 6 839
55 7 296
55 8 242
55 9 450
55 10 770
55 11 454
55 12 483
55 13 665
55 14 515
55 15 212
55 16 847
55 17 213
55 18 572
55 19 648
55 20 252
55 21 755
55 22 504
55 23 485
55 24 3
55 25 244
55 26 685
55 27 878
55 28 39
55 29 620
55 30 38
55 31 506
55 32 430
55 33 583
55 34 836
55 35 94
55 36 315
55 37 704
55 38 885
55 39 742
55 40 718
55 41 387
55 42 652
55 43 700
55 44 942
55 45 419
55 46 154
55 47 455
55 48 471
55 49 130
55 50 678
55 51 266
55 52 584
55 53 399
55 54 643
56 1 526
56 2 112
56 3 26
56 4 174
56 5 579
56 6 33
56 7 215
56 8 208
56 9 869
56 10 850
56 11 173
56 12 192
56 13 552
56 14 937
56 15 77
56 16 686
56 17 948
56 18 301
56 19 921
56 20 453
56 21 470
56 22 445
56 23 990
56 24 836
56 25 889
56 26 278
56 27 963
56 28 495
56 29 94
56 30 261
56 31 904
56 32 825
56 33 692
56 34 232
56 35 647
56 36 612
56 37 106
56 38 603
56 39 318
56 40 748
56 41 35
56 42 860
56 43 13
56 44 78
56 45 403
56 46 579
56 47 868
56 48 680
56 49 186
56 50 371
56 51 49
56 52 159
56 53 739
56 54 472
56 55 384
57 1 765
57 2 502
57 3 909
57 4 675
57 5 401
57 6 217
57 7 428
57 8 917
57 9 840
57 10 31
57 11 642
57 12 944
57 13 714
57 14 122
57 15 65
57 16 247
57 17 95
57 18 711
57 19 6
57 20 971
57 21 733
57 22 610
57 23 482
57 24 352
57 25 266
57 26 667
57 27 613
57 28 79
57 29 970
57 30 742
57 31 186
57 32 361
57 33 867
57 34 103
57 35 318
57 36 673
57 37 250
57 38 357
57 39 427
57 40 470
57 41 953
57 42 298
57 43 941
57 44 333
57 45 923
57 46 310
57 47 438
57 48 339
57 49 917
57 50 191
57 51 160
57 52 631
57 53 380
57 54 539
57 55 92
57 56 455
58 1 833
58 2 69
58 3 52
58 4 169
58 5 333
58 6 494
58 7 468
58 8 971
58 9 816
58 10 854
58 11 806
58 12 348
58 13 397
58 14 406
58 15 821
58 16 518
58 17 936
58 18 482
58 19 85
58 20 343
58 21 447
58 22 906
58 23 472
58 24 488
58 25 152
58 26 886
58 27 556
58 28 818
58 29 264
58 30 488
58 31 99
58 32 291
58 33 794
58 34 73
58 35 78
58 36 853
58 37 969
58 38 332
58 39 945
58 40 82
58 41 67
58 42 797
58 43 49
58 44 597
58 45 733
58 46 955
58 47 430
58 48 467
58 49 101
58 50 336
58 51 410
58 52 145
58 53 281
58 54 226
58 55 680
58 56 671
58 57 32
59 1 857
59 2 822
59 3 136
59 4 681
59 5 223
59 6 461
59 7 691
59 8 617
59 9 891
59 10 485
59 11 571
59 12 910
59 13 438
59 14 24
59 15 914
59 16 886
59 17 394
59 18 131
59 19 360
59 20 714
59 21 824
59 22 360
59 23 705
59 24 328
59 25 912
59 26 672
59 27 86
59 28 249
59 29 202
59 30 371
59 31 480
59 32 115
59 33 344
59 34 8
59 35 496
59 36 6
59 37 505
59 38 440
59 39 735
59 40 854
59 41 798
59 42 495
59 43 208
59 44 526
59 45 373
59 46 921
59 47 564
59 48 384
59 49 48
59 50 576
59 51 151
59 52 395
59 53 598
59 54 36
59 55 137
59 56 101
59 57 93
59 58 70
60 1 218
60 2 26
60 3 911
60 4 677
60 5 655
60 6 321
60 7 300
60 8 617
60 9 645
60 10 728
60 11 623
60 12 630
60 13 283
60 14 175
60 15 663
60 16 794
60 17 616
60 18 558
60 19 613
60 20 696
60 21 547
60 22 546
60 23 643
60 24 379
60 25 586
60 26 458
60 27 155
60 28 230
60 29 710
60 30 534
60 31 117
60 32 283
60 33 828
60 34 177
60 35 104
60 36 590
60 37 614
60 38 958
60 39 919
60 40 641
60 41 702
60 42 482
60 43 926
60 44 992
60 45 505
60 46 398
60 47 480
60 48 561
60 49 153
60 50 150
60 51 71
60 52 279
60 53 319
60 54 263
60 55 67
60 56 33
60 57 919
60 58 244
60 59 196
61 1 98
61 2 950
61 3 405
61 4 117
61 5 499
61 6 974
61 7 181
61 8 743
61 9 989
61 10 985
61 11 758
61 12 170
61 13 588
61 14 687
61 15 75
61 16 353
61 17 881
61 18 414
61 19 519
61 20 903
61 21 502
61 22 207
61 23 876
61 24 635
61 25 504
61 26 811
61 27 362
61 28 752
61 29 567
61 30 567
61 31 788
61 32 781
61 33 204
61 34 491
61 35 187
61 36 647
61 37 447
61 38 11
61 39 468
61 40 526
61 41 671
61 42 136
61 43 902
61 44 328
61 45 513
61 46 51
61 47 523
61 48 964
61 49 81
61 50 396
61 51 746
61 52 769
61 53 875
61 54 735
61 55 779
61 56 699
61 57 142
61 58 960
61 59 640
61 60 199
62 1 573
62 2 647
62 3 843
62 4 854
62 5 557
62 6 604
62 7 79
62 8 216
62 9 427
62 10 127
62 11 447
62 12 423
62 13 386
62 14 707
62 15 58
62 16 503
62 17 53
62 18 208
62 19 78
62 20 473
62 21 832
62 22 743
62 23 527
62 24 639
62 25 531
62 26 786
62 27 393
62 28 691
62 29 929
62 30 244
62 31 891
62 32 510
62 33 238
62 34 506
62 35 920
62 36 780
62 37 639
62 38 734
62 39 39
62 40 815
62 41 342
62 42 869
62 43 540
62 44 204
62 45 864
62 46 143
62 47 408
62 48 172
62 49 453
62 50 68
62 51 264
62 52 777
62 53 867
62 54 183
62 55 586
62 56 321
62 57 934
62 58 41
62 59 783
62 60 606
62 61 598
63 1 205
63 2 944
63 3 921
63 4 376
63 5 250
63 6 310
63 7 873
63 8 439
63 9 25
63 10 812
63 11 454
63 12 731
63 13 681
63 14 209
63 15 972
63 16 851
63 17 221
63 18 681
63 19 715
63 20 603
63 21 567
63 22 903
63 23 490
63 24 438
63 25 411
63 26 947
63 27 407
63 28 203
63 29 336
63 30 569
63 31 538
63 32 912
63 33 990
63 34 685
63 35 335
63 36 460
63 37 276
63 38 125
63 39 927
63 40 481
63 41 854
63 42 962
63 43 689
63 44 797
63 45 427
63 46 992
63 47 693
63 48 135
63 49 585
63 50 183
63 51 937
63 52 65
63 53 198
63 54 148
63 55 470
63 56 349
63 57 619
63 58 974
63 59 801
63 60 134
63 61 200
63 62 962
64 1 210
64 2 694
64 3 873
64 4 98
64 5 847
64 6 648
64 7 804
64 8 320
64 9 750
64 10 859
64 11 363
64 12 906
64 13 156
64 14 440
64 15 930
64 16 531
64 17 731
64 18 581
64 19 277
64 20 829
64 21 608
64 22 106
64 23 541
64 24 517
64 25 356
64 26 990
64 27 31
64 28 395
64 29 253
64 30 239
64 31 379
64 32 794
64 33 505
64 34 858
64 35 795
64 36 288
64 37 282
64 38 823
64 39 410
64 40 731
64 41 693
64 42 263
64 43 991
64 44 944
64 45 99
64 46 289
64 47 498
64 48 604
64 49 373
64 50 160
64 51 266
64 52 175
64 53 991
64 54 729
64 55 798
64 56 921
64 57 94
64 58 363
64 59 432
64 60 336
64 61 886
64 62 771
64 63 377
65 1 547
65 2 1000
65 3 441
65 4 887
65 5 518
65 6 722
65 7 617
65 8 554
65 9 103
65 10 180
65 11 17
65 12 1
65 13 286
65 14 905
65 15 731
65 16 458
65 17 157
65 18 365
65 19 981
65 20 980
65 21 448
65 22 370
65 23 703
65 24 320
65 25 697
65 26 471
65 27 118
65 28 698
65 29 353
65 30 730
65 31 760
65 32 978
65 33 389
65 34 493
65 35 634
65 36 7
65 37 237
65 38 38
65 39 444
65 40 110
65 41 121
65 42 244
65 43 104
65 44 15
65 45 91
65 46 632
65 47 944
65 48 685
65 49 335
65 50 442
65 51 326
65 52 839
65 53 577
65 54 586
65 55 597
65 56 141
65 57 637
65 58 646
65 59 581
65 60 330
65 61 463
65 62 256
65 63 41
65 64 782
66 1 199
66 2 537
66 3 811
66 4 270
66 5 113
66 6 425
66 7 535
66 8 905
66 9 444
66 10 52
66 11 201
66 12 545
66 13 493
66 14 543
66 15 929
66 16 138
66 17 513
66 18 858
66 19 672
66 20 785
66 21 225
66 22 568
66 23 809
66 24 508
66 25 23
66 26 680
66 27 788
66 28 982
66 29 174
66 30 902
66 31 287
66 32 736
66 33 605
66 34 972
66 35 567
66 36 577
66 37 63
66 38 927
66 39 963
66 40 241
66 41 733
66 42 443
66 43 710
66 44 522
66 45 630
66 46 635
66 47 539
66 48 383
66 49 326
66 50 921
66 51 733
66 52 813
66 53 823
66 54 860
66 55 597
66 56 414
66 57 654
66 58 69
66 59 512
66 60 996
66 61 517
66 62 606
66 63 39
66 64 662
66 65 11
67 1 454
67 2 739
67 3 150
67 4 285
67 5 971
67 6 680
67 7 432
67 8 684
67 9 454
67 10 787
67 11 830
67 12 684
67 13 170
67 14 511
67 15 134
67 16 704
67 17 518
67 18 484
67 19 502
67 20 594
67 21 157
67 22 113
67 23 127
67 24 881
67 25 275
67 26 301
67 27 932
67 28 78
67 29 340
67 30 738
67 31 794
67 32 627
67 33 987
67 34 448
67 35 58
67 36 290
67 37 902
67 38 544
67 39 334
67 40 60
67 41 851
67 42 375
67 43 836
67 44 904
67 45 211
67 46 499
67 47 776
67 48 898
67 49 651
67 50 194
67 51 548
67 52 592
67 53 832
67 54 431
67 55 722
67 56 636
67 57 254
67 58 503
67 59 95
67 60 28
67 61 636
67 62 757
67 63 304
67 64 505
67 65 454
67 66 121
68 1 756
68 2 930
68 3 508
68 4 354
68 5 873
68 6 720
68 7 666
68 8 235
68 9 920
68 10 639
68 11 146
68 12 102
68 13 901
68 14 517
68 15 970
68 16 459
68 17 292
68 18 728
68 19 473
68 20 581
68 21 612
68 22 464
68 23 993
68 24 299
68 25 73
68 26 153
68 27 124
68 28 432
68 29 836
68 30 566
68 31 150
68 32 528
68 33 607
68 34 434
68 35 554
68 36 878
68 37 583
68 38 653
68 39 723
68 40 978
68 41 8
68 42 373
68 43 226
68 44 899
68 45 837
68 46 554
68 47 297
68 48 232
68 49 256
68 50 805
68 51 407
68 52 576
68 53 81
68 54 554
68 55 37
68 56 736
68 57 264
68 58 891
68 59 56
68 60 91
68 61 36
68 62 634
68 63 311
68 64 814
68 65 421
68 66 436
68 67 315
69 1 884
69 2 130
69 3 6
69 4 169
69 5 95
69 6 104
69 7 752
69 8 89
69 9 477
69 10 181
69 11 421
69 12 165
69 13 854
69 14 670
69 15 546
69 16 237
69 17 450
69 18 813
69 19 769
69 20 20
69 21 757
69 22 409
69 23 356
69 24 843
69 25 88
69 26 85
69 27 466
69 28 647
69 29 523
69 30 981
69 31 7
69 32 105
69 33 176
69 34 849
69 35 117
69 36 11
69 37 987
69 38 818
69 39 617
69 40 301
69 41 464
69 42 330
69 43 976
69 44 343
69 45 83
69 46 4
69 47 628
69 48 371
69 49 283
69 50 425
69 51 682
69 52 199
69 53 232
69 54 122
69 55 373
69 56 584
69 57 833
69 58 226
69 59 783
69 60 872
69 61 638
69 62 578
69 63 685
69 64 808
69 65 621
69 66 272
69 67 549
69 68 638
70 1 1
70 2 901
70 3 37
70 4 876
70 5 559
70 6 10
70 7 562
70 8 372
70 9 133
70 10 501
70 11 709
70 12 554
70 13 235
70 14 996
70 15 601
70 16 985
70 17 989
70 18 421
70 19 510
70 20 596
70 21 824
70 22 302
70 23 302
70 24 235
70 25 607
70 26 541
70 27 511
70 28 412
70 29 178
70 30 659
70 31 114
70 32 363
70 33 456
70 34 772
70 35 335
70 36 818
70 37 567
70 38 810
70 39 28
70 40 93
70 41 695
70 42 708
70 43 467
70 44 397
70 45 576
70 46 602
70 47 603
70 48 471
70 49 847
70 50 262
70 51 106
70 52 948
70 53 676
70 54 282
70 55 767
70 56 53
70 57 376
70 58 767
70 59 53
70 60 536
70 61 938
70 62 531
70 63 912
70 64 945
70 65 676
70 66 55
70 67 125
70 68 643
70 69 423
71 1 712
71 2 769
71 3 182
71 4 976
71 5 6
71 6 622
71 7 912
71 8 722
71 9 842
71 10 567
71 11 966
71 12 646
71 13 67
71 14 308
71 15 989
71 16 156
71 17 792
71 18 979
71 19 242
71 20 419
71 21 252
71 22 443
71 23 965
71 24 146
71 25 202
71 26 359
71 27 125
71 28 25
71 29 105
71 30 342
71 31 917
71 32 232
71 33 621
71 34 753
71 35 676
71 36 727
71 37 140
71 38 974
71 39 40
71 40 257
71 41 375
71 42 202
71 43 526
71 44 276
71 45 257
71 46 94
71 47 883
71 48 211
71 49 651
71 50 830
71 51 845
71 52 771
71 53 626
71 54 406
71 55 181
71 56 237
71 57 306
71 58 217
71 59 156
71 60 930
71 61 540
71 62 268
71 63 784
71 64 292
71 65 899
71 66 553
71 67 509
71 68 273
71 69 755
71 70 432
72 1 184
72 2 973
72 3 446
72 4 82
72 5 486
72 6 713
72 7 784
72 8 312
72 9 137
72 10 1
72 11 397
72 12 333
72 13 567
72 14 58
72 15 679
72 16 292
72 17 890
72 18 866
72 19 334
72 20 626
72 21 336
72 22 922
72 23 777
72 24 572
72 25 498
72 26 131
72 27 896
72 28 376
72 29 40
72 30 550
72 31 922
72 32 44
72 33 739
72 34 898
72 35 422
72 36 673
72 37 987
72 38 48
72 39 658
72 40 705
72 41 135
72 42 930
72 43 821
72 44 650
72 45 305
72 46 529
72 47 897
72 48 106
72 49 560
72 50 941
72 51 160
72 52 138
72 53 537
72 54 659
72 55 556
72 56 333
72 57 953
72 58 537
72 59 477
72 60 102
72 61 586
72 62 127
72 63 673
72 64 30
72 65 625
72 66 325
72 67 319
72 68 368
72 69 514
72 70 517
72 71 484
73 1 949
73 2 665
73 3 675
73 4 499
73 5 130
73 6 681
73 7 86
73 8 990
73 9 541
73 10 945
73 11 650
73 12 576
73 13 743
73 14 736
73 15 962
73 16 478
73 17 78
73 18 217
73 19 587
73 20 559
73 21 303
73 22 953
73 23 248
73 24 529
73 25 813
73 26 817
73 27 848
73 28 337
73 29 514
73 30 421
73 31 533
73 32 991
73 33 678
73 34 457
73 35 223
73 36 321
73 37 333
73 38 567
73 39 317
73 40 426
73 41 8
73 42 622
73 43 498
73 44 821
73 45 905
73 46 547
73 47 845
73 48 532
73 49 807
73 50 61
73 51 681
73 52 640
73 53 287
73 54 968
73 55 853
73 56 36
73 57 50
73 58 876
73 59 389
73 60 387
73 61 450
73 62 466
73 63 717
73 64 560
73 65 518
73 66 707
73 67 894
73 68 22
73 69 67
73 70 625
73 71 526
73 72 957
74 1 666
74 2 521
74 3 333
74 4 113
74 5 592
74 6 756
74 7 546
74 8 626
74 9 29
74 10 492
74 11 571
74 12 326
74 13 120
74 14 8
74 15 616
74 16 290
74 17 663
74 18 480
74 19 231
74 20 627
74 21 529
74 22 341
74 23 933
74 24 761
74 25 119
74 26 612
74 27 380
74 28 717
74 29 415
74 30 832
74 31 765
74 32 159
74 33 458
74 34 452
74 35 381
74 36 182
74 37 306
74 38 844
74 39 559
74 40 122
74 41 793
74 42 281
74 43 394
74 44 871
74 45 661
74 46 533
74 47 975
74 48 474
74 49 869
74 50 959
74 51 49
74 52 990
74 53 159
74 54 203
74 55 313
74 56 879
74 57 184
74 58 903
74 59 772
74 60 428
74 61 772
74 62 13
74 63 864
74 64 954
74 65 137
74 66 644
74 67 275
74 68 798
74 69 114
74 70 527
74 71 664
74 72 363
74 73 715
